10
2 0 6
2 1 65
3 0 19
3 2 57
4 0 40
4 1 13
4 3 77
5 0 46
5 1 72
5 2 59
5 3 6
5 4 38
6 1 68
6 2 55
6 3 68
6 4 80
6 5 63
7 0 46
7 2 19
7 3 13
7 4 17
7 5 41
7 6 46
8 0 9
8 1 32
8 3 33
8 4 36
8 5 34
8 7 25
9 0 7
9 1 52
9 2 71
9 5 73
9 6 43
9 7 37
